c Generated map
c Size: 8 * 8, weights in range: 1 to 10, walls: True, with ratio 0.05
c dim 7 of 10
c
p sp 64 101
c graph contains 64 nodes and 101 arcs
c
a 1 9 8
a 9 1 8
a 1 2 6
a 2 1 6
a 2 10 6
a 10 2 6
a 2 3 1
a 3 2 1
a 3 11 5
a 11 3 5
a 3 4 3
a 4 3 3
a 4 5 10
a 5 4 10
a 5 13 3
a 13 5 3
a 5 6 9
a 6 5 9
a 6 14 5
a 14 6 5
a 6 7 2
a 7 6 2
a 7 15 8
a 15 7 8
a 7 8 6
a 8 7 6
a 8 16 1
a 16 8 1
a 9 10 6
a 10 9 6
a 10 18 7
a 18 10 7
a 10 11 4
a 11 10 4
a 11 19 5
a 19 11 5
a 13 21 5
a 21 13 5
a 13 14 5
a 14 13 5
a 14 22 3
a 22 14 3
a 14 15 5
a 15 14 5
a 15 23 9
a 23 15 9
a 15 16 6
a 16 15 6
a 16 24 5
a 24 16 5
a 18 26 2
a 26 18 2
a 18 19 10
a 19 18 10
a 19 27 3
a 27 19 3
a 19 20 6
a 20 19 6
a 20 28 1
a 28 20 1
a 20 21 1
a 21 20 1
a 21 29 3
a 29 21 3
a 21 22 8
a 22 21 8
a 22 30 3
a 30 22 3
a 22 23 9
a 23 22 9
a 23 31 4
a 31 23 4
a 23 24 2
a 24 23 2
a 24 32 4
a 32 24 4
a 25 33 1
a 33 25 1
a 25 26 1
a 26 25 1
a 26 34 2
a 34 26 2
a 26 27 3
a 27 26 3
a 27 35 7
a 35 27 7
a 27 28 3
a 28 27 3
a 28 36 6
a 36 28 6
a 28 29 2
a 29 28 2
a 29 37 5
a 37 29 5
a 29 30 6
a 30 29 6
a 30 38 3
a 38 30 3
a 30 31 8
a 31 30 8
a 31 39 3
a 39 31 3
a 31 32 2
a 32 31 2
a 32 40 6
a 40 32 6
a 33 41 7
a 41 33 7
a 33 34 3
a 34 33 3
a 34 35 3
a 35 34 3
a 35 43 2
a 43 35 2
a 35 36 9
a 36 35 9
a 36 44 6
a 44 36 6
a 36 37 1
a 37 36 1
a 37 45 7
a 45 37 7
a 37 38 9
a 38 37 9
a 38 46 2
a 46 38 2
a 38 39 10
a 39 38 10
a 39 47 3
a 47 39 3
a 39 40 1
a 40 39 1
a 40 48 5
a 48 40 5
a 41 49 10
a 49 41 10
a 43 51 5
a 51 43 5
a 43 44 10
a 44 43 10
a 44 52 1
a 52 44 1
a 44 45 3
a 45 44 3
a 45 53 9
a 53 45 9
a 45 46 6
a 46 45 6
a 46 54 8
a 54 46 8
a 46 47 5
a 47 46 5
a 47 55 1
a 55 47 1
a 47 48 9
a 48 47 9
a 48 56 9
a 56 48 9
a 49 57 9
a 57 49 9
a 49 50 1
a 50 49 1
a 50 58 10
a 58 50 10
a 50 51 7
a 51 50 7
a 51 59 9
a 59 51 9
a 51 52 8
a 52 51 8
a 52 60 3
a 60 52 3
a 52 53 5
a 53 52 5
a 53 61 8
a 61 53 8
a 53 54 6
a 54 53 6
a 54 62 9
a 62 54 9
a 54 55 8
a 55 54 8
a 55 63 10
a 63 55 10
a 55 56 7
a 56 55 7
a 56 64 8
a 64 56 8
a 57 58 5
a 58 57 5
a 58 59 9
a 59 58 9
a 59 60 6
a 60 59 6
a 60 61 10
a 61 60 10
a 61 62 5
a 62 61 5
a 62 63 1
a 63 62 1
a 63 64 2
a 64 63 2
